projected/problems_b25_r0_d7_m100_s666/_DIMACS/b25_d7_r0_s666_070.cnf
p cnf 202 284 25
c p show 1 2 3 4 5 6 7 8 9 10 11 12 13 14 15 16 17 18 19 20 21 22 23 24 25
-180 6 15 0
-181 15 6 0
-182 181 180 0
-183 15 -19 0
-184 14 -17 0
-185 184 183 0
-186 185 0
-186 182 0
-187 -3 0
-187 10 0
-188 -10 0
-188 3 0
-189 188 187 0
-190 7 -15 0
-191 190 189 0
-192 4 0
-192 -14 0
-193 20 4 0
-194 193 192 0
-195 194 0
-195 191 0
-196 195 186 0
-197 -10 0
-197 -23 0
-198 -16 4 0
-199 198 197 0
-200 -4 2 0
-201 8 0
-201 -1 0
-202 1 0
-202 -8 0
-26 202 201 0
-27 26 200 0
-28 27 0
-28 199 0
-29 4 0
-29 -2 0
-30 -8 1 0
-31 -1 8 0
-32 31 0
-32 30 0
-33 32 0
-33 29 0
-34 10 23 0
-35 16 0
-35 -4 0
-36 35 0
-36 34 0
-37 36 0
-37 33 0
-38 37 28 0
-39 -24 -15 0
-40 15 24 0
-41 40 0
-41 39 0
-42 -9 11 0
-43 42 0
-43 41 0
-44 20 15 0
-45 -15 -20 0
-46 45 0
-46 44 0
-47 18 0
-47 10 0
-48 47 46 0
-49 48 43 0
-50 49 0
-50 38 0
-51 50 196 0
-52 21 -2 0
-53 14 0
-53 16 0
-54 53 0
-54 52 0
-55 -14 -16 0
-56 -21 0
-56 2 0
-57 56 0
-57 55 0
-58 57 54 0
-59 -4 0
-59 -5 0
-60 -7 0
-61 7 0
-62 61 60 0
-63 62 59 0
-64 63 58 0
-65 -10 3 0
-66 -9 16 0
-67 66 65 0
-68 -25 -7 0
-69 7 0
-69 -13 0
-70 69 0
-70 68 0
-71 70 0
-71 67 0
-72 71 64 0
-73 19 0
-74 12 0
-74 24 0
-75 74 0
-75 73 0
-76 23 -5 0
-77 -16 -9 0
-78 77 0
-78 76 0
-79 78 0
-79 75 0
-80 -23 0
-80 5 0
-81 16 0
-81 9 0
-82 81 80 0
-83 -19 0
-84 -12 -24 0
-85 84 83 0
-86 85 0
-86 82 0
-87 86 79 0
-88 22 -24 0
-89 20 -25 0
-90 89 88 0
-91 -9 0
-91 1 0
-92 -16 -24 0
-93 92 0
-93 91 0
-94 93 90 0
-95 94 0
-95 87 0
-96 95 0
-96 72 0
-97 96 51 0
-98 11 -6 0
-99 19 18 0
-100 99 0
-100 98 0
-101 -19 0
-101 -18 0
-102 -11 0
-102 6 0
-103 102 0
-103 101 0
-104 103 100 0
-105 21 0
-105 23 0
-106 -8 0
-106 -20 0
-107 106 0
-107 105 0
-108 8 20 0
-109 -21 -23 0
-110 109 0
-110 108 0
-111 110 107 0
-112 111 0
-112 104 0
-113 6 -21 0
-114 -12 2 0
-115 114 113 0
-116 -22 0
-116 9 0
-117 15 -23 0
-118 23 -15 0
-119 118 0
-119 117 0
-120 119 116 0
-121 120 0
-121 115 0
-122 121 112 0
-123 10 0
-123 -6 0
-124 -15 -17 0
-125 17 15 0
-126 125 0
-126 124 0
-127 126 123 0
-128 1 3 0
-129 -12 25 0
-130 129 0
-130 128 0
-131 130 127 0
-132 -6 11 0
-133 6 0
-133 24 0
-134 133 0
-134 132 0
-135 -16 0
-135 -6 0
-136 -2 6 0
-137 136 135 0
-138 137 134 0
-139 138 131 0
-140 139 0
-140 122 0
-141 1 -7 0
-142 -5 0
-142 -22 0
-143 142 141 0
-144 -17 19 0
-145 -3 0
-145 13 0
-146 145 144 0
-147 146 0
-147 143 0
-148 21 0
-148 10 0
-149 -23 24 0
-150 149 148 0
-151 -10 -22 0
-152 109 151 0
-153 152 150 0
-154 153 0
-154 147 0
-155 18 -1 0
-156 -23 -13 0
-157 156 155 0
-158 -25 0
-158 -21 0
-159 -1 -17 0
-160 159 0
-160 158 0
-161 160 0
-161 157 0
-162 -6 -10 0
-163 -12 -4 0
-164 163 0
-164 162 0
-165 25 0
-165 2 0
-166 -2 0
-166 -25 0
-167 166 165 0
-168 2 0
-168 -14 0
-169 168 167 0
-170 -2 14 0
-171 -25 -2 0
-172 2 25 0
-173 172 0
-173 171 0
-174 173 170 0
-175 174 0
-175 169 0
-176 175 0
-176 164 0
-177 176 161 0
-178 177 154 0
-179 178 140 0
179 97 0
-200 -29 0
-29 -200 0
-32 -26 0
-33 -27 0
-27 -33 0
-34 -197 0
-197 -34 0
-198 -35 0
-199 -36 0
-36 -199 0
-55 -53 0
-53 -55 0
-52 -56 0
-56 -52 0
-76 -80 0
-77 -81 0
-78 -82 0
-73 -83 0
-83 -73 0
-84 -74 0
-85 -75 0
-101 -99 0
-99 -101 0
-98 -102 0
-102 -98 0
-108 -106 0
-106 -108 0
-105 -109 0
-109 -105 0
-168 -170 0
-170 -168 0
-173 -167 0
-167 -173 0
