projected/problems_b25_r0_d7_m100_s666/b25_d7_r0_s666_070.smt2
(set-logic QF_UF)
(declare-fun A0 () Bool)
(declare-fun A1 () Bool)
(declare-fun A2 () Bool)
(declare-fun A3 () Bool)
(declare-fun A4 () Bool)
(declare-fun A5 () Bool)
(declare-fun A6 () Bool)
(declare-fun A7 () Bool)
(declare-fun A8 () Bool)
(declare-fun A9 () Bool)
(declare-fun A10 () Bool)
(declare-fun A11 () Bool)
(declare-fun A12 () Bool)
(declare-fun A13 () Bool)
(declare-fun A14 () Bool)
(declare-fun A15 () Bool)
(declare-fun A16 () Bool)
(declare-fun A17 () Bool)
(declare-fun A18 () Bool)
(declare-fun A19 () Bool)
(declare-fun A20 () Bool)
(declare-fun A21 () Bool)
(declare-fun A22 () Bool)
(declare-fun A23 () Bool)
(declare-fun A24 () Bool)
(assert (let ((.def_0 (or A5 A14))) (let ((.def_1 (or A14 A5))) (let ((.def_2 (or .def_1 .def_0))) (let ((.def_3 (not .def_2))) (let ((.def_4 (not A18))) (let ((.def_5 (or A14 .def_4))) (let ((.def_6 (not .def_5))) (let ((.def_7 (not A16))) (let ((.def_8 (or A13 .def_7))) (let ((.def_9 (not .def_8))) (let ((.def_10 (and .def_9 .def_6))) (let ((.def_11 (or .def_10 .def_3))) (let ((.def_12 (not .def_11))) (let ((.def_13 (not A2))) (let ((.def_14 (not A9))) (let ((.def_15 (= .def_14 .def_13))) (let ((.def_16 (not .def_15))) (let ((.def_17 (not A6))) (let ((.def_18 (and .def_17 A14))) (let ((.def_19 (not .def_18))) (let ((.def_20 (or .def_19 .def_16))) (let ((.def_21 (not .def_20))) (let ((.def_22 (not A13))) (let ((.def_23 (and A3 .def_22))) (let ((.def_24 (not .def_23))) (let ((.def_25 (not A3))) (let ((.def_26 (not A19))) (let ((.def_27 (and .def_26 .def_25))) (let ((.def_28 (and .def_27 .def_24))) (let ((.def_29 (or .def_28 .def_21))) (let ((.def_30 (not .def_29))) (let ((.def_31 (or .def_30 .def_12))) (let ((.def_32 (not .def_31))) (let ((.def_33 (or .def_25 A1))) (let ((.def_34 (not .def_33))) (let ((.def_35 (= A0 A7))) (let ((.def_36 (and .def_35 .def_34))) (let ((.def_37 (not .def_36))) (let ((.def_38 (or A9 A22))) (let ((.def_39 (not .def_38))) (let ((.def_40 (not A15))) (let ((.def_41 (or .def_40 A3))) (let ((.def_42 (or .def_41 .def_39))) (let ((.def_43 (not .def_42))) (let ((.def_44 (= .def_43 .def_37))) (let ((.def_45 (not A14))) (let ((.def_46 (= .def_45 A23))) (let ((.def_47 (not A8))) (let ((.def_48 (or .def_47 A10))) (let ((.def_49 (and .def_48 .def_46))) (let ((.def_50 (= A14 .def_26))) (let ((.def_51 (not .def_50))) (let ((.def_52 (and A17 A9))) (let ((.def_53 (not .def_52))) (let ((.def_54 (and .def_53 .def_51))) (let ((.def_55 (not .def_54))) (let ((.def_56 (or .def_55 .def_49))) (let ((.def_57 (not .def_56))) (let ((.def_58 (or .def_57 .def_44))) (let ((.def_59 (and .def_58 .def_32))) (let ((.def_60 (not .def_59))) (let ((.def_61 (or .def_22 .def_40))) (let ((.def_62 (not .def_61))) (let ((.def_63 (not A1))) (let ((.def_64 (or A20 .def_63))) (let ((.def_65 (not .def_64))) (let ((.def_66 (= .def_65 .def_62))) (let ((.def_67 (not .def_66))) (let ((.def_68 (not A4))) (let ((.def_69 (and .def_25 .def_68))) (let ((.def_70 (= A6 .def_17))) (let ((.def_71 (not .def_70))) (let ((.def_72 (or .def_71 .def_69))) (let ((.def_73 (or .def_72 .def_67))) (let ((.def_74 (or .def_14 A2))) (let ((.def_75 (not .def_74))) (let ((.def_76 (and A8 .def_40))) (let ((.def_77 (and .def_76 .def_75))) (let ((.def_78 (not .def_77))) (let ((.def_79 (and A24 A6))) (let ((.def_80 (not .def_79))) (let ((.def_81 (or .def_17 A12))) (let ((.def_82 (not .def_81))) (let ((.def_83 (and .def_82 .def_80))) (let ((.def_84 (and .def_83 .def_78))) (let ((.def_85 (or .def_84 .def_73))) (let ((.def_86 (not .def_85))) (let ((.def_87 (or A22 .def_68))) (let ((.def_88 (or .def_40 .def_47))) (let ((.def_89 (and .def_88 .def_87))) (let ((.def_90 (or A18 A18))) (let ((.def_91 (not .def_90))) (let ((.def_92 (not A23))) (let ((.def_93 (not A11))) (let ((.def_94 (or .def_93 .def_92))) (let ((.def_95 (or .def_94 .def_91))) (let ((.def_96 (= .def_95 .def_89))) (let ((.def_97 (not A21))) (let ((.def_98 (and .def_97 A23))) (let ((.def_99 (not A24))) (let ((.def_100 (or A19 .def_99))) (let ((.def_101 (not .def_100))) (let ((.def_102 (and .def_101 .def_98))) (let ((.def_103 (not .def_102))) (let ((.def_104 (not A0))) (let ((.def_105 (or A8 .def_104))) (let ((.def_106 (and A15 A23))) (let ((.def_107 (or .def_106 .def_105))) (let ((.def_108 (not .def_107))) (let ((.def_109 (or .def_108 .def_103))) (let ((.def_110 (not .def_109))) (let ((.def_111 (or .def_110 .def_96))) (let ((.def_112 (or .def_111 .def_86))) (let ((.def_113 (not .def_112))) (let ((.def_114 (or .def_113 .def_60))) (let ((.def_115 (not A17))) (let ((.def_116 (and .def_4 .def_115))) (let ((.def_117 (not .def_116))) (let ((.def_118 (not A5))) (let ((.def_119 (or A10 .def_118))) (let ((.def_120 (not .def_119))) (let ((.def_121 (= .def_120 .def_117))) (let ((.def_122 (or A7 A19))) (let ((.def_123 (not .def_122))) (let ((.def_124 (and A20 A22))) (let ((.def_125 (not .def_124))) (let ((.def_126 (= .def_125 .def_123))) (let ((.def_127 (or .def_126 .def_121))) (let ((.def_128 (not A20))) (let ((.def_129 (or A5 .def_128))) (let ((.def_130 (and A11 .def_63))) (let ((.def_131 (not .def_130))) (let ((.def_132 (or .def_131 .def_129))) (let ((.def_133 (not .def_132))) (let ((.def_134 (or A21 .def_47))) (let ((.def_135 (not A22))) (let ((.def_136 (= .def_135 .def_45))) (let ((.def_137 (not .def_136))) (let ((.def_138 (and .def_137 .def_134))) (let ((.def_139 (or .def_138 .def_133))) (let ((.def_140 (and .def_139 .def_127))) (let ((.def_141 (or .def_14 A5))) (let ((.def_142 (not .def_141))) (let ((.def_143 (= .def_7 A14))) (let ((.def_144 (or .def_143 .def_142))) (let ((.def_145 (not .def_144))) (let ((.def_146 (or A0 A2))) (let ((.def_147 (not .def_146))) (let ((.def_148 (or .def_93 A24))) (let ((.def_149 (not .def_148))) (let ((.def_150 (or .def_149 .def_147))) (let ((.def_151 (and .def_150 .def_145))) (let ((.def_152 (not .def_151))) (let ((.def_153 (or .def_118 A10))) (let ((.def_154 (or .def_118 .def_92))) (let ((.def_155 (not .def_154))) (let ((.def_156 (and .def_155 .def_153))) (let ((.def_157 (not .def_156))) (let ((.def_158 (and .def_40 .def_118))) (let ((.def_159 (and A1 .def_118))) (let ((.def_160 (not .def_159))) (let ((.def_161 (or .def_160 .def_158))) (let ((.def_162 (not .def_161))) (let ((.def_163 (and .def_162 .def_157))) (let ((.def_164 (not .def_163))) (let ((.def_165 (or .def_164 .def_152))) (let ((.def_166 (not .def_165))) (let ((.def_167 (or .def_166 .def_140))) (let ((.def_168 (or A0 .def_17))) (let ((.def_169 (and .def_68 .def_97))) (let ((.def_170 (or .def_169 .def_168))) (let ((.def_171 (not .def_170))) (let ((.def_172 (and A16 .def_4))) (let ((.def_173 (not .def_172))) (let ((.def_174 (not A12))) (let ((.def_175 (or A2 .def_174))) (let ((.def_176 (not .def_175))) (let ((.def_177 (or .def_176 .def_173))) (let ((.def_178 (not .def_177))) (let ((.def_179 (or .def_178 .def_171))) (let ((.def_180 (or .def_128 .def_14))) (let ((.def_181 (or .def_135 A23))) (let ((.def_182 (not .def_181))) (let ((.def_183 (and .def_182 .def_180))) (let ((.def_184 (or .def_14 .def_97))) (let ((.def_185 (not .def_184))) (let ((.def_186 (and .def_124 .def_185))) (let ((.def_187 (and .def_186 .def_183))) (let ((.def_188 (or .def_187 .def_179))) (let ((.def_189 (and .def_115 A0))) (let ((.def_190 (not .def_189))) (let ((.def_191 (or .def_135 .def_174))) (let ((.def_192 (or .def_191 .def_190))) (let ((.def_193 (not .def_192))) (let ((.def_194 (or A24 A20))) (let ((.def_195 (or .def_104 .def_7))) (let ((.def_196 (not .def_195))) (let ((.def_197 (or .def_196 .def_194))) (let ((.def_198 (or .def_197 .def_193))) (let ((.def_199 (and A5 A9))) (let ((.def_200 (or .def_93 .def_25))) (let ((.def_201 (not .def_200))) (let ((.def_202 (or .def_201 .def_199))) (let ((.def_203 (not .def_202))) (let ((.def_204 (and A1 .def_22))) (let ((.def_205 (not .def_204))) (let ((.def_206 (= .def_63 A24))) (let ((.def_207 (not .def_206))) (let ((.def_208 (= .def_207 .def_205))) (let ((.def_209 (and .def_208 .def_203))) (let ((.def_210 (not .def_209))) (let ((.def_211 (and .def_210 .def_198))) (let ((.def_212 (and .def_211 .def_188))) (let ((.def_213 (and .def_212 .def_167))) (let ((.def_214 (not .def_213))) (let ((.def_215 (or .def_214 .def_114))) .def_215)))))))))))))))))))))))))))))))))))))))))))))))))))))))))))))))))))))))))))))))))))))))))))))))))))))))))))))))))))))))))))))))))))))))))))))))))))))))))))))))))))))))))))))))))))))))))))))))))))))))))))))))))))))))))
(check-sat)
